c t wmc
c file mc2022_track2_115.cnf
p cnf 135 1269
-1 46 -91 0
1 -46 -91 0
-1 -46 -91 0
-2 47 -92 0
2 -47 -92 0
-2 -47 -92 0
-3 48 -93 0
3 -48 -93 0
-3 -48 -93 0
-4 49 -94 0
4 -49 -94 0
-4 -49 -94 0
-5 50 -95 0
5 -50 -95 0
-5 -50 -95 0
-6 51 -96 0
6 -51 -96 0
-6 -51 -96 0
-7 52 -97 0
7 -52 -97 0
-7 -52 -97 0
-8 53 -98 0
8 -53 -98 0
-8 -53 -98 0
-9 54 -99 0
9 -54 -99 0
-9 -54 -99 0
-10 55 -100 0
10 -55 -100 0
-10 -55 -100 0
-11 56 -101 0
11 -56 -101 0
-11 -56 -101 0
-12 57 -102 0
12 -57 -102 0
-12 -57 -102 0
-13 58 -103 0
13 -58 -103 0
-13 -58 -103 0
-14 59 -104 0
14 -59 -104 0
-14 -59 -104 0
-15 60 -105 0
15 -60 -105 0
-15 -60 -105 0
-16 61 -106 0
16 -61 -106 0
-16 -61 -106 0
-17 62 -107 0
17 -62 -107 0
-17 -62 -107 0
-18 63 -108 0
18 -63 -108 0
-18 -63 -108 0
-19 64 -109 0
19 -64 -109 0
-19 -64 -109 0
-20 65 -110 0
20 -65 -110 0
-20 -65 -110 0
-21 66 -111 0
21 -66 -111 0
-21 -66 -111 0
-22 67 -112 0
22 -67 -112 0
-22 -67 -112 0
-23 68 -113 0
23 -68 -113 0
-23 -68 -113 0
-24 69 -114 0
24 -69 -114 0
-24 -69 -114 0
-25 70 -115 0
25 -70 -115 0
-25 -70 -115 0
-26 71 -116 0
26 -71 -116 0
-26 -71 -116 0
-27 72 -117 0
27 -72 -117 0
-27 -72 -117 0
-28 73 -118 0
28 -73 -118 0
-28 -73 -118 0
-29 74 -119 0
29 -74 -119 0
-29 -74 -119 0
-30 75 -120 0
30 -75 -120 0
-30 -75 -120 0
-31 76 -121 0
31 -76 -121 0
-31 -76 -121 0
-32 77 -122 0
32 -77 -122 0
-32 -77 -122 0
-33 78 -123 0
33 -78 -123 0
-33 -78 -123 0
-34 79 -124 0
34 -79 -124 0
-34 -79 -124 0
-35 80 -125 0
35 -80 -125 0
-35 -80 -125 0
-36 81 -126 0
36 -81 -126 0
-36 -81 -126 0
-37 82 -127 0
37 -82 -127 0
-37 -82 -127 0
-38 83 -128 0
38 -83 -128 0
-38 -83 -128 0
-39 84 -129 0
39 -84 -129 0
-39 -84 -129 0
-40 85 -130 0
40 -85 -130 0
-40 -85 -130 0
-41 86 -131 0
41 -86 -131 0
-41 -86 -131 0
-42 87 -132 0
42 -87 -132 0
-42 -87 -132 0
-43 88 -133 0
43 -88 -133 0
-43 -88 -133 0
-44 89 -134 0
44 -89 -134 0
-44 -89 -134 0
-45 90 -135 0
45 -90 -135 0
-45 -90 -135 0
-1 0
-46 0
-91 0
5 0
-50 0
-95 0
-15 0
60 0
-105 0
1 46 91 5 50 95 0
-1 46 91 -5 50 95 0
1 -46 91 5 -50 95 0
-1 -46 91 -5 -50 95 0
1 46 -91 5 50 -95 0
1 46 91 15 60 105 0
-1 46 91 -15 60 105 0
1 -46 91 15 -60 105 0
-1 -46 91 -15 -60 105 0
1 46 -91 15 60 -105 0
1 46 91 17 62 107 0
-1 46 91 -17 62 107 0
1 -46 91 17 -62 107 0
-1 -46 91 -17 -62 107 0
1 46 -91 17 62 -107 0
1 46 91 40 85 130 0
-1 46 91 -40 85 130 0
1 -46 91 40 -85 130 0
-1 -46 91 -40 -85 130 0
1 46 -91 40 85 -130 0
1 46 91 29 74 119 0
-1 46 91 -29 74 119 0
1 -46 91 29 -74 119 0
-1 -46 91 -29 -74 119 0
1 46 -91 29 74 -119 0
1 46 91 2 47 92 0
-1 46 91 -2 47 92 0
1 -46 91 2 -47 92 0
-1 -46 91 -2 -47 92 0
1 46 -91 2 47 -92 0
1 46 91 17 62 107 0
-1 46 91 -17 62 107 0
1 -46 91 17 -62 107 0
-1 -46 91 -17 -62 107 0
1 46 -91 17 62 -107 0
1 46 91 43 88 133 0
-1 46 91 -43 88 133 0
1 -46 91 43 -88 133 0
-1 -46 91 -43 -88 133 0
1 46 -91 43 88 -133 0
1 46 91 15 60 105 0
-1 46 91 -15 60 105 0
1 -46 91 15 -60 105 0
-1 -46 91 -15 -60 105 0
1 46 -91 15 60 -105 0
1 46 91 14 59 104 0
-1 46 91 -14 59 104 0
1 -46 91 14 -59 104 0
-1 -46 91 -14 -59 104 0
1 46 -91 14 59 -104 0
2 47 92 15 60 105 0
-2 47 92 -15 60 105 0
2 -47 92 15 -60 105 0
-2 -47 92 -15 -60 105 0
2 47 -92 15 60 -105 0
2 47 92 16 61 106 0
-2 47 92 -16 61 106 0
2 -47 92 16 -61 106 0
-2 -47 92 -16 -61 106 0
2 47 -92 16 61 -106 0
2 47 92 15 60 105 0
-2 47 92 -15 60 105 0
2 -47 92 15 -60 105 0
-2 -47 92 -15 -60 105 0
2 47 -92 15 60 -105 0
2 47 92 27 72 117 0
-2 47 92 -27 72 117 0
2 -47 92 27 -72 117 0
-2 -47 92 -27 -72 117 0
2 47 -92 27 72 -117 0
2 47 92 24 69 114 0
-2 47 92 -24 69 114 0
2 -47 92 24 -69 114 0
-2 -47 92 -24 -69 114 0
2 47 -92 24 69 -114 0
2 47 92 4 49 94 0
-2 47 92 -4 49 94 0
2 -47 92 4 -49 94 0
-2 -47 92 -4 -49 94 0
2 47 -92 4 49 -94 0
2 47 92 25 70 115 0
-2 47 92 -25 70 115 0
2 -47 92 25 -70 115 0
-2 -47 92 -25 -70 115 0
2 47 -92 25 70 -115 0
2 47 92 9 54 99 0
-2 47 92 -9 54 99 0
2 -47 92 9 -54 99 0
-2 -47 92 -9 -54 99 0
2 47 -92 9 54 -99 0
2 47 92 36 81 126 0
-2 47 92 -36 81 126 0
2 -47 92 36 -81 126 0
-2 -47 92 -36 -81 126 0
2 47 -92 36 81 -126 0
3 48 93 24 69 114 0
-3 48 93 -24 69 114 0
3 -48 93 24 -69 114 0
-3 -48 93 -24 -69 114 0
3 48 -93 24 69 -114 0
3 48 93 35 80 125 0
-3 48 93 -35 80 125 0
3 -48 93 35 -80 125 0
-3 -48 93 -35 -80 125 0
3 48 -93 35 80 -125 0
3 48 93 6 51 96 0
-3 48 93 -6 51 96 0
3 -48 93 6 -51 96 0
-3 -48 93 -6 -51 96 0
3 48 -93 6 51 -96 0
3 48 93 19 64 109 0
-3 48 93 -19 64 109 0
3 -48 93 19 -64 109 0
-3 -48 93 -19 -64 109 0
3 48 -93 19 64 -109 0
3 48 93 16 61 106 0
-3 48 93 -16 61 106 0
3 -48 93 16 -61 106 0
-3 -48 93 -16 -61 106 0
3 48 -93 16 61 -106 0
3 48 93 20 65 110 0
-3 48 93 -20 65 110 0
3 -48 93 20 -65 110 0
-3 -48 93 -20 -65 110 0
3 48 -93 20 65 -110 0
3 48 93 18 63 108 0
-3 48 93 -18 63 108 0
3 -48 93 18 -63 108 0
-3 -48 93 -18 -63 108 0
3 48 -93 18 63 -108 0
3 48 93 19 64 109 0
-3 48 93 -19 64 109 0
3 -48 93 19 -64 109 0
-3 -48 93 -19 -64 109 0
3 48 -93 19 64 -109 0
3 48 93 26 71 116 0
-3 48 93 -26 71 116 0
3 -48 93 26 -71 116 0
-3 -48 93 -26 -71 116 0
3 48 -93 26 71 -116 0
3 48 93 37 82 127 0
-3 48 93 -37 82 127 0
3 -48 93 37 -82 127 0
-3 -48 93 -37 -82 127 0
3 48 -93 37 82 -127 0
4 49 94 44 89 134 0
-4 49 94 -44 89 134 0
4 -49 94 44 -89 134 0
-4 -49 94 -44 -89 134 0
4 49 -94 44 89 -134 0
4 49 94 22 67 112 0
-4 49 94 -22 67 112 0
4 -49 94 22 -67 112 0
-4 -49 94 -22 -67 112 0
4 49 -94 22 67 -112 0
4 49 94 16 61 106 0
-4 49 94 -16 61 106 0
4 -49 94 16 -61 106 0
-4 -49 94 -16 -61 106 0
4 49 -94 16 61 -106 0
4 49 94 8 53 98 0
-4 49 94 -8 53 98 0
4 -49 94 8 -53 98 0
-4 -49 94 -8 -53 98 0
4 49 -94 8 53 -98 0
4 49 94 14 59 104 0
-4 49 94 -14 59 104 0
4 -49 94 14 -59 104 0
-4 -49 94 -14 -59 104 0
4 49 -94 14 59 -104 0
4 49 94 37 82 127 0
-4 49 94 -37 82 127 0
4 -49 94 37 -82 127 0
-4 -49 94 -37 -82 127 0
4 49 -94 37 82 -127 0
4 49 94 30 75 120 0
-4 49 94 -30 75 120 0
4 -49 94 30 -75 120 0
-4 -49 94 -30 -75 120 0
4 49 -94 30 75 -120 0
4 49 94 39 84 129 0
-4 49 94 -39 84 129 0
4 -49 94 39 -84 129 0
-4 -49 94 -39 -84 129 0
4 49 -94 39 84 -129 0
4 49 94 40 85 130 0
-4 49 94 -40 85 130 0
4 -49 94 40 -85 130 0
-4 -49 94 -40 -85 130 0
4 49 -94 40 85 -130 0
5 50 95 34 79 124 0
-5 50 95 -34 79 124 0
5 -50 95 34 -79 124 0
-5 -50 95 -34 -79 124 0
5 50 -95 34 79 -124 0
5 50 95 13 58 103 0
-5 50 95 -13 58 103 0
5 -50 95 13 -58 103 0
-5 -50 95 -13 -58 103 0
5 50 -95 13 58 -103 0
5 50 95 33 78 123 0
-5 50 95 -33 78 123 0
5 -50 95 33 -78 123 0
-5 -50 95 -33 -78 123 0
5 50 -95 33 78 -123 0
5 50 95 38 83 128 0
-5 50 95 -38 83 128 0
5 -50 95 38 -83 128 0
-5 -50 95 -38 -83 128 0
5 50 -95 38 83 -128 0
5 50 95 15 60 105 0
-5 50 95 -15 60 105 0
5 -50 95 15 -60 105 0
-5 -50 95 -15 -60 105 0
5 50 -95 15 60 -105 0
5 50 95 29 74 119 0
-5 50 95 -29 74 119 0
5 -50 95 29 -74 119 0
-5 -50 95 -29 -74 119 0
5 50 -95 29 74 -119 0
5 50 95 40 85 130 0
-5 50 95 -40 85 130 0
5 -50 95 40 -85 130 0
-5 -50 95 -40 -85 130 0
5 50 -95 40 85 -130 0
5 50 95 8 53 98 0
-5 50 95 -8 53 98 0
5 -50 95 8 -53 98 0
-5 -50 95 -8 -53 98 0
5 50 -95 8 53 -98 0
5 50 95 18 63 108 0
-5 50 95 -18 63 108 0
5 -50 95 18 -63 108 0
-5 -50 95 -18 -63 108 0
5 50 -95 18 63 -108 0
6 51 96 20 65 110 0
-6 51 96 -20 65 110 0
6 -51 96 20 -65 110 0
-6 -51 96 -20 -65 110 0
6 51 -96 20 65 -110 0
6 51 96 27 72 117 0
-6 51 96 -27 72 117 0
6 -51 96 27 -72 117 0
-6 -51 96 -27 -72 117 0
6 51 -96 27 72 -117 0
6 51 96 12 57 102 0
-6 51 96 -12 57 102 0
6 -51 96 12 -57 102 0
-6 -51 96 -12 -57 102 0
6 51 -96 12 57 -102 0
6 51 96 29 74 119 0
-6 51 96 -29 74 119 0
6 -51 96 29 -74 119 0
-6 -51 96 -29 -74 119 0
6 51 -96 29 74 -119 0
6 51 96 11 56 101 0
-6 51 96 -11 56 101 0
6 -51 96 11 -56 101 0
-6 -51 96 -11 -56 101 0
6 51 -96 11 56 -101 0
6 51 96 10 55 100 0
-6 51 96 -10 55 100 0
6 -51 96 10 -55 100 0
-6 -51 96 -10 -55 100 0
6 51 -96 10 55 -100 0
6 51 96 45 90 135 0
-6 51 96 -45 90 135 0
6 -51 96 45 -90 135 0
-6 -51 96 -45 -90 135 0
6 51 -96 45 90 -135 0
6 51 96 29 74 119 0
-6 51 96 -29 74 119 0
6 -51 96 29 -74 119 0
-6 -51 96 -29 -74 119 0
6 51 -96 29 74 -119 0
6 51 96 30 75 120 0
-6 51 96 -30 75 120 0
6 -51 96 30 -75 120 0
-6 -51 96 -30 -75 120 0
6 51 -96 30 75 -120 0
7 52 97 43 88 133 0
-7 52 97 -43 88 133 0
7 -52 97 43 -88 133 0
-7 -52 97 -43 -88 133 0
7 52 -97 43 88 -133 0
7 52 97 33 78 123 0
-7 52 97 -33 78 123 0
7 -52 97 33 -78 123 0
-7 -52 97 -33 -78 123 0
7 52 -97 33 78 -123 0
7 52 97 36 81 126 0
-7 52 97 -36 81 126 0
7 -52 97 36 -81 126 0
-7 -52 97 -36 -81 126 0
7 52 -97 36 81 -126 0
7 52 97 45 90 135 0
-7 52 97 -45 90 135 0
7 -52 97 45 -90 135 0
-7 -52 97 -45 -90 135 0
7 52 -97 45 90 -135 0
7 52 97 27 72 117 0
-7 52 97 -27 72 117 0
7 -52 97 27 -72 117 0
-7 -52 97 -27 -72 117 0
7 52 -97 27 72 -117 0
7 52 97 41 86 131 0
-7 52 97 -41 86 131 0
7 -52 97 41 -86 131 0
-7 -52 97 -41 -86 131 0
7 52 -97 41 86 -131 0
7 52 97 38 83 128 0
-7 52 97 -38 83 128 0
7 -52 97 38 -83 128 0
-7 -52 97 -38 -83 128 0
7 52 -97 38 83 -128 0
7 52 97 21 66 111 0
-7 52 97 -21 66 111 0
7 -52 97 21 -66 111 0
-7 -52 97 -21 -66 111 0
7 52 -97 21 66 -111 0
7 52 97 13 58 103 0
-7 52 97 -13 58 103 0
7 -52 97 13 -58 103 0
-7 -52 97 -13 -58 103 0
7 52 -97 13 58 -103 0
7 52 97 31 76 121 0
-7 52 97 -31 76 121 0
7 -52 97 31 -76 121 0
-7 -52 97 -31 -76 121 0
7 52 -97 31 76 -121 0
8 53 98 42 87 132 0
-8 53 98 -42 87 132 0
8 -53 98 42 -87 132 0
-8 -53 98 -42 -87 132 0
8 53 -98 42 87 -132 0
8 53 98 25 70 115 0
-8 53 98 -25 70 115 0
8 -53 98 25 -70 115 0
-8 -53 98 -25 -70 115 0
8 53 -98 25 70 -115 0
8 53 98 40 85 130 0
-8 53 98 -40 85 130 0
8 -53 98 40 -85 130 0
-8 -53 98 -40 -85 130 0
8 53 -98 40 85 -130 0
8 53 98 41 86 131 0
-8 53 98 -41 86 131 0
8 -53 98 41 -86 131 0
-8 -53 98 -41 -86 131 0
8 53 -98 41 86 -131 0
8 53 98 22 67 112 0
-8 53 98 -22 67 112 0
8 -53 98 22 -67 112 0
-8 -53 98 -22 -67 112 0
8 53 -98 22 67 -112 0
8 53 98 26 71 116 0
-8 53 98 -26 71 116 0
8 -53 98 26 -71 116 0
-8 -53 98 -26 -71 116 0
8 53 -98 26 71 -116 0
8 53 98 33 78 123 0
-8 53 98 -33 78 123 0
8 -53 98 33 -78 123 0
-8 -53 98 -33 -78 123 0
8 53 -98 33 78 -123 0
8 53 98 35 80 125 0
-8 53 98 -35 80 125 0
8 -53 98 35 -80 125 0
-8 -53 98 -35 -80 125 0
8 53 -98 35 80 -125 0
9 54 99 43 88 133 0
-9 54 99 -43 88 133 0
9 -54 99 43 -88 133 0
-9 -54 99 -43 -88 133 0
9 54 -99 43 88 -133 0
9 54 99 24 69 114 0
-9 54 99 -24 69 114 0
9 -54 99 24 -69 114 0
-9 -54 99 -24 -69 114 0
9 54 -99 24 69 -114 0
9 54 99 32 77 122 0
-9 54 99 -32 77 122 0
9 -54 99 32 -77 122 0
-9 -54 99 -32 -77 122 0
9 54 -99 32 77 -122 0
9 54 99 10 55 100 0
-9 54 99 -10 55 100 0
9 -54 99 10 -55 100 0
-9 -54 99 -10 -55 100 0
9 54 -99 10 55 -100 0
9 54 99 38 83 128 0
-9 54 99 -38 83 128 0
9 -54 99 38 -83 128 0
-9 -54 99 -38 -83 128 0
9 54 -99 38 83 -128 0
9 54 99 43 88 133 0
-9 54 99 -43 88 133 0
9 -54 99 43 -88 133 0
-9 -54 99 -43 -88 133 0
9 54 -99 43 88 -133 0
9 54 99 27 72 117 0
-9 54 99 -27 72 117 0
9 -54 99 27 -72 117 0
-9 -54 99 -27 -72 117 0
9 54 -99 27 72 -117 0
9 54 99 19 64 109 0
-9 54 99 -19 64 109 0
9 -54 99 19 -64 109 0
-9 -54 99 -19 -64 109 0
9 54 -99 19 64 -109 0
9 54 99 41 86 131 0
-9 54 99 -41 86 131 0
9 -54 99 41 -86 131 0
-9 -54 99 -41 -86 131 0
9 54 -99 41 86 -131 0
10 55 100 25 70 115 0
-10 55 100 -25 70 115 0
10 -55 100 25 -70 115 0
-10 -55 100 -25 -70 115 0
10 55 -100 25 70 -115 0
10 55 100 31 76 121 0
-10 55 100 -31 76 121 0
10 -55 100 31 -76 121 0
-10 -55 100 -31 -76 121 0
10 55 -100 31 76 -121 0
10 55 100 14 59 104 0
-10 55 100 -14 59 104 0
10 -55 100 14 -59 104 0
-10 -55 100 -14 -59 104 0
10 55 -100 14 59 -104 0
10 55 100 21 66 111 0
-10 55 100 -21 66 111 0
10 -55 100 21 -66 111 0
-10 -55 100 -21 -66 111 0
10 55 -100 21 66 -111 0
10 55 100 35 80 125 0
-10 55 100 -35 80 125 0
10 -55 100 35 -80 125 0
-10 -55 100 -35 -80 125 0
10 55 -100 35 80 -125 0
10 55 100 15 60 105 0
-10 55 100 -15 60 105 0
10 -55 100 15 -60 105 0
-10 -55 100 -15 -60 105 0
10 55 -100 15 60 -105 0
10 55 100 16 61 106 0
-10 55 100 -16 61 106 0
10 -55 100 16 -61 106 0
-10 -55 100 -16 -61 106 0
10 55 -100 16 61 -106 0
10 55 100 24 69 114 0
-10 55 100 -24 69 114 0
10 -55 100 24 -69 114 0
-10 -55 100 -24 -69 114 0
10 55 -100 24 69 -114 0
11 56 101 22 67 112 0
-11 56 101 -22 67 112 0
11 -56 101 22 -67 112 0
-11 -56 101 -22 -67 112 0
11 56 -101 22 67 -112 0
11 56 101 17 62 107 0
-11 56 101 -17 62 107 0
11 -56 101 17 -62 107 0
-11 -56 101 -17 -62 107 0
11 56 -101 17 62 -107 0
11 56 101 45 90 135 0
-11 56 101 -45 90 135 0
11 -56 101 45 -90 135 0
-11 -56 101 -45 -90 135 0
11 56 -101 45 90 -135 0
11 56 101 22 67 112 0
-11 56 101 -22 67 112 0
11 -56 101 22 -67 112 0
-11 -56 101 -22 -67 112 0
11 56 -101 22 67 -112 0
11 56 101 36 81 126 0
-11 56 101 -36 81 126 0
11 -56 101 36 -81 126 0
-11 -56 101 -36 -81 126 0
11 56 -101 36 81 -126 0
11 56 101 18 63 108 0
-11 56 101 -18 63 108 0
11 -56 101 18 -63 108 0
-11 -56 101 -18 -63 108 0
11 56 -101 18 63 -108 0
11 56 101 31 76 121 0
-11 56 101 -31 76 121 0
11 -56 101 31 -76 121 0
-11 -56 101 -31 -76 121 0
11 56 -101 31 76 -121 0
11 56 101 34 79 124 0
-11 56 101 -34 79 124 0
11 -56 101 34 -79 124 0
-11 -56 101 -34 -79 124 0
11 56 -101 34 79 -124 0
11 56 101 16 61 106 0
-11 56 101 -16 61 106 0
11 -56 101 16 -61 106 0
-11 -56 101 -16 -61 106 0
11 56 -101 16 61 -106 0
12 57 102 41 86 131 0
-12 57 102 -41 86 131 0
12 -57 102 41 -86 131 0
-12 -57 102 -41 -86 131 0
12 57 -102 41 86 -131 0
12 57 102 41 86 131 0
-12 57 102 -41 86 131 0
12 -57 102 41 -86 131 0
-12 -57 102 -41 -86 131 0
12 57 -102 41 86 -131 0
12 57 102 42 87 132 0
-12 57 102 -42 87 132 0
12 -57 102 42 -87 132 0
-12 -57 102 -42 -87 132 0
12 57 -102 42 87 -132 0
12 57 102 26 71 116 0
-12 57 102 -26 71 116 0
12 -57 102 26 -71 116 0
-12 -57 102 -26 -71 116 0
12 57 -102 26 71 -116 0
12 57 102 33 78 123 0
-12 57 102 -33 78 123 0
12 -57 102 33 -78 123 0
-12 -57 102 -33 -78 123 0
12 57 -102 33 78 -123 0
12 57 102 33 78 123 0
-12 57 102 -33 78 123 0
12 -57 102 33 -78 123 0
-12 -57 102 -33 -78 123 0
12 57 -102 33 78 -123 0
12 57 102 22 67 112 0
-12 57 102 -22 67 112 0
12 -57 102 22 -67 112 0
-12 -57 102 -22 -67 112 0
12 57 -102 22 67 -112 0
12 57 102 34 79 124 0
-12 57 102 -34 79 124 0
12 -57 102 34 -79 124 0
-12 -57 102 -34 -79 124 0
12 57 -102 34 79 -124 0
12 57 102 40 85 130 0
-12 57 102 -40 85 130 0
12 -57 102 40 -85 130 0
-12 -57 102 -40 -85 130 0
12 57 -102 40 85 -130 0
13 58 103 29 74 119 0
-13 58 103 -29 74 119 0
13 -58 103 29 -74 119 0
-13 -58 103 -29 -74 119 0
13 58 -103 29 74 -119 0
13 58 103 37 82 127 0
-13 58 103 -37 82 127 0
13 -58 103 37 -82 127 0
-13 -58 103 -37 -82 127 0
13 58 -103 37 82 -127 0
13 58 103 20 65 110 0
-13 58 103 -20 65 110 0
13 -58 103 20 -65 110 0
-13 -58 103 -20 -65 110 0
13 58 -103 20 65 -110 0
13 58 103 19 64 109 0
-13 58 103 -19 64 109 0
13 -58 103 19 -64 109 0
-13 -58 103 -19 -64 109 0
13 58 -103 19 64 -109 0
13 58 103 35 80 125 0
-13 58 103 -35 80 125 0
13 -58 103 35 -80 125 0
-13 -58 103 -35 -80 125 0
13 58 -103 35 80 -125 0
13 58 103 16 61 106 0
-13 58 103 -16 61 106 0
13 -58 103 16 -61 106 0
-13 -58 103 -16 -61 106 0
13 58 -103 16 61 -106 0
13 58 103 41 86 131 0
-13 58 103 -41 86 131 0
13 -58 103 41 -86 131 0
-13 -58 103 -41 -86 131 0
13 58 -103 41 86 -131 0
13 58 103 19 64 109 0
-13 58 103 -19 64 109 0
13 -58 103 19 -64 109 0
-13 -58 103 -19 -64 109 0
13 58 -103 19 64 -109 0
14 59 104 25 70 115 0
-14 59 104 -25 70 115 0
14 -59 104 25 -70 115 0
-14 -59 104 -25 -70 115 0
14 59 -104 25 70 -115 0
14 59 104 45 90 135 0
-14 59 104 -45 90 135 0
14 -59 104 45 -90 135 0
-14 -59 104 -45 -90 135 0
14 59 -104 45 90 -135 0
14 59 104 24 69 114 0
-14 59 104 -24 69 114 0
14 -59 104 24 -69 114 0
-14 -59 104 -24 -69 114 0
14 59 -104 24 69 -114 0
14 59 104 44 89 134 0
-14 59 104 -44 89 134 0
14 -59 104 44 -89 134 0
-14 -59 104 -44 -89 134 0
14 59 -104 44 89 -134 0
14 59 104 34 79 124 0
-14 59 104 -34 79 124 0
14 -59 104 34 -79 124 0
-14 -59 104 -34 -79 124 0
14 59 -104 34 79 -124 0
14 59 104 32 77 122 0
-14 59 104 -32 77 122 0
14 -59 104 32 -77 122 0
-14 -59 104 -32 -77 122 0
14 59 -104 32 77 -122 0
14 59 104 23 68 113 0
-14 59 104 -23 68 113 0
14 -59 104 23 -68 113 0
-14 -59 104 -23 -68 113 0
14 59 -104 23 68 -113 0
15 60 105 44 89 134 0
-15 60 105 -44 89 134 0
15 -60 105 44 -89 134 0
-15 -60 105 -44 -89 134 0
15 60 -105 44 89 -134 0
15 60 105 35 80 125 0
-15 60 105 -35 80 125 0
15 -60 105 35 -80 125 0
-15 -60 105 -35 -80 125 0
15 60 -105 35 80 -125 0
15 60 105 20 65 110 0
-15 60 105 -20 65 110 0
15 -60 105 20 -65 110 0
-15 -60 105 -20 -65 110 0
15 60 -105 20 65 -110 0
15 60 105 43 88 133 0
-15 60 105 -43 88 133 0
15 -60 105 43 -88 133 0
-15 -60 105 -43 -88 133 0
15 60 -105 43 88 -133 0
16 61 106 43 88 133 0
-16 61 106 -43 88 133 0
16 -61 106 43 -88 133 0
-16 -61 106 -43 -88 133 0
16 61 -106 43 88 -133 0
16 61 106 31 76 121 0
-16 61 106 -31 76 121 0
16 -61 106 31 -76 121 0
-16 -61 106 -31 -76 121 0
16 61 -106 31 76 -121 0
16 61 106 36 81 126 0
-16 61 106 -36 81 126 0
16 -61 106 36 -81 126 0
-16 -61 106 -36 -81 126 0
16 61 -106 36 81 -126 0
16 61 106 30 75 120 0
-16 61 106 -30 75 120 0
16 -61 106 30 -75 120 0
-16 -61 106 -30 -75 120 0
16 61 -106 30 75 -120 0
17 62 107 18 63 108 0
-17 62 107 -18 63 108 0
17 -62 107 18 -63 108 0
-17 -62 107 -18 -63 108 0
17 62 -107 18 63 -108 0
17 62 107 25 70 115 0
-17 62 107 -25 70 115 0
17 -62 107 25 -70 115 0
-17 -62 107 -25 -70 115 0
17 62 -107 25 70 -115 0
17 62 107 21 66 111 0
-17 62 107 -21 66 111 0
17 -62 107 21 -66 111 0
-17 -62 107 -21 -66 111 0
17 62 -107 21 66 -111 0
17 62 107 19 64 109 0
-17 62 107 -19 64 109 0
17 -62 107 19 -64 109 0
-17 -62 107 -19 -64 109 0
17 62 -107 19 64 -109 0
17 62 107 40 85 130 0
-17 62 107 -40 85 130 0
17 -62 107 40 -85 130 0
-17 -62 107 -40 -85 130 0
17 62 -107 40 85 -130 0
17 62 107 35 80 125 0
-17 62 107 -35 80 125 0
17 -62 107 35 -80 125 0
-17 -62 107 -35 -80 125 0
17 62 -107 35 80 -125 0
17 62 107 21 66 111 0
-17 62 107 -21 66 111 0
17 -62 107 21 -66 111 0
-17 -62 107 -21 -66 111 0
17 62 -107 21 66 -111 0
18 63 108 20 65 110 0
-18 63 108 -20 65 110 0
18 -63 108 20 -65 110 0
-18 -63 108 -20 -65 110 0
18 63 -108 20 65 -110 0
18 63 108 22 67 112 0
-18 63 108 -22 67 112 0
18 -63 108 22 -67 112 0
-18 -63 108 -22 -67 112 0
18 63 -108 22 67 -112 0
18 63 108 41 86 131 0
-18 63 108 -41 86 131 0
18 -63 108 41 -86 131 0
-18 -63 108 -41 -86 131 0
18 63 -108 41 86 -131 0
18 63 108 19 64 109 0
-18 63 108 -19 64 109 0
18 -63 108 19 -64 109 0
-18 -63 108 -19 -64 109 0
18 63 -108 19 64 -109 0
18 63 108 32 77 122 0
-18 63 108 -32 77 122 0
18 -63 108 32 -77 122 0
-18 -63 108 -32 -77 122 0
18 63 -108 32 77 -122 0
18 63 108 23 68 113 0
-18 63 108 -23 68 113 0
18 -63 108 23 -68 113 0
-18 -63 108 -23 -68 113 0
18 63 -108 23 68 -113 0
19 64 109 42 87 132 0
-19 64 109 -42 87 132 0
19 -64 109 42 -87 132 0
-19 -64 109 -42 -87 132 0
19 64 -109 42 87 -132 0
19 64 109 43 88 133 0
-19 64 109 -43 88 133 0
19 -64 109 43 -88 133 0
-19 -64 109 -43 -88 133 0
19 64 -109 43 88 -133 0
19 64 109 44 89 134 0
-19 64 109 -44 89 134 0
19 -64 109 44 -89 134 0
-19 -64 109 -44 -89 134 0
19 64 -109 44 89 -134 0
20 65 110 38 83 128 0
-20 65 110 -38 83 128 0
20 -65 110 38 -83 128 0
-20 -65 110 -38 -83 128 0
20 65 -110 38 83 -128 0
20 65 110 38 83 128 0
-20 65 110 -38 83 128 0
20 -65 110 38 -83 128 0
-20 -65 110 -38 -83 128 0
20 65 -110 38 83 -128 0
20 65 110 28 73 118 0
-20 65 110 -28 73 118 0
20 -65 110 28 -73 118 0
-20 -65 110 -28 -73 118 0
20 65 -110 28 73 -118 0
20 65 110 23 68 113 0
-20 65 110 -23 68 113 0
20 -65 110 23 -68 113 0
-20 -65 110 -23 -68 113 0
20 65 -110 23 68 -113 0
20 65 110 32 77 122 0
-20 65 110 -32 77 122 0
20 -65 110 32 -77 122 0
-20 -65 110 -32 -77 122 0
20 65 -110 32 77 -122 0
21 66 111 37 82 127 0
-21 66 111 -37 82 127 0
21 -66 111 37 -82 127 0
-21 -66 111 -37 -82 127 0
21 66 -111 37 82 -127 0
21 66 111 39 84 129 0
-21 66 111 -39 84 129 0
21 -66 111 39 -84 129 0
-21 -66 111 -39 -84 129 0
21 66 -111 39 84 -129 0
21 66 111 44 89 134 0
-21 66 111 -44 89 134 0
21 -66 111 44 -89 134 0
-21 -66 111 -44 -89 134 0
21 66 -111 44 89 -134 0
21 66 111 33 78 123 0
-21 66 111 -33 78 123 0
21 -66 111 33 -78 123 0
-21 -66 111 -33 -78 123 0
21 66 -111 33 78 -123 0
21 66 111 41 86 131 0
-21 66 111 -41 86 131 0
21 -66 111 41 -86 131 0
-21 -66 111 -41 -86 131 0
21 66 -111 41 86 -131 0
21 66 111 31 76 121 0
-21 66 111 -31 76 121 0
21 -66 111 31 -76 121 0
-21 -66 111 -31 -76 121 0
21 66 -111 31 76 -121 0
22 67 112 28 73 118 0
-22 67 112 -28 73 118 0
22 -67 112 28 -73 118 0
-22 -67 112 -28 -73 118 0
22 67 -112 28 73 -118 0
22 67 112 30 75 120 0
-22 67 112 -30 75 120 0
22 -67 112 30 -75 120 0
-22 -67 112 -30 -75 120 0
22 67 -112 30 75 -120 0
22 67 112 31 76 121 0
-22 67 112 -31 76 121 0
22 -67 112 31 -76 121 0
-22 -67 112 -31 -76 121 0
22 67 -112 31 76 -121 0
22 67 112 34 79 124 0
-22 67 112 -34 79 124 0
22 -67 112 34 -79 124 0
-22 -67 112 -34 -79 124 0
22 67 -112 34 79 -124 0
23 68 113 40 85 130 0
-23 68 113 -40 85 130 0
23 -68 113 40 -85 130 0
-23 -68 113 -40 -85 130 0
23 68 -113 40 85 -130 0
23 68 113 26 71 116 0
-23 68 113 -26 71 116 0
23 -68 113 26 -71 116 0
-23 -68 113 -26 -71 116 0
23 68 -113 26 71 -116 0
23 68 113 44 89 134 0
-23 68 113 -44 89 134 0
23 -68 113 44 -89 134 0
-23 -68 113 -44 -89 134 0
23 68 -113 44 89 -134 0
23 68 113 36 81 126 0
-23 68 113 -36 81 126 0
23 -68 113 36 -81 126 0
-23 -68 113 -36 -81 126 0
23 68 -113 36 81 -126 0
23 68 113 39 84 129 0
-23 68 113 -39 84 129 0
23 -68 113 39 -84 129 0
-23 -68 113 -39 -84 129 0
23 68 -113 39 84 -129 0
23 68 113 29 74 119 0
-23 68 113 -29 74 119 0
23 -68 113 29 -74 119 0
-23 -68 113 -29 -74 119 0
23 68 -113 29 74 -119 0
23 68 113 27 72 117 0
-23 68 113 -27 72 117 0
23 -68 113 27 -72 117 0
-23 -68 113 -27 -72 117 0
23 68 -113 27 72 -117 0
24 69 114 39 84 129 0
-24 69 114 -39 84 129 0
24 -69 114 39 -84 129 0
-24 -69 114 -39 -84 129 0
24 69 -114 39 84 -129 0
24 69 114 33 78 123 0
-24 69 114 -33 78 123 0
24 -69 114 33 -78 123 0
-24 -69 114 -33 -78 123 0
24 69 -114 33 78 -123 0
24 69 114 45 90 135 0
-24 69 114 -45 90 135 0
24 -69 114 45 -90 135 0
-24 -69 114 -45 -90 135 0
24 69 -114 45 90 -135 0
24 69 114 25 70 115 0
-24 69 114 -25 70 115 0
24 -69 114 25 -70 115 0
-24 -69 114 -25 -70 115 0
24 69 -114 25 70 -115 0
24 69 114 32 77 122 0
-24 69 114 -32 77 122 0
24 -69 114 32 -77 122 0
-24 -69 114 -32 -77 122 0
24 69 -114 32 77 -122 0
25 70 115 44 89 134 0
-25 70 115 -44 89 134 0
25 -70 115 44 -89 134 0
-25 -70 115 -44 -89 134 0
25 70 -115 44 89 -134 0
25 70 115 31 76 121 0
-25 70 115 -31 76 121 0
25 -70 115 31 -76 121 0
-25 -70 115 -31 -76 121 0
25 70 -115 31 76 -121 0
25 70 115 28 73 118 0
-25 70 115 -28 73 118 0
25 -70 115 28 -73 118 0
-25 -70 115 -28 -73 118 0
25 70 -115 28 73 -118 0
25 70 115 42 87 132 0
-25 70 115 -42 87 132 0
25 -70 115 42 -87 132 0
-25 -70 115 -42 -87 132 0
25 70 -115 42 87 -132 0
26 71 116 28 73 118 0
-26 71 116 -28 73 118 0
26 -71 116 28 -73 118 0
-26 -71 116 -28 -73 118 0
26 71 -116 28 73 -118 0
26 71 116 30 75 120 0
-26 71 116 -30 75 120 0
26 -71 116 30 -75 120 0
-26 -71 116 -30 -75 120 0
26 71 -116 30 75 -120 0
26 71 116 27 72 117 0
-26 71 116 -27 72 117 0
26 -71 116 27 -72 117 0
-26 -71 116 -27 -72 117 0
26 71 -116 27 72 -117 0
26 71 116 37 82 127 0
-26 71 116 -37 82 127 0
26 -71 116 37 -82 127 0
-26 -71 116 -37 -82 127 0
26 71 -116 37 82 -127 0
26 71 116 32 77 122 0
-26 71 116 -32 77 122 0
26 -71 116 32 -77 122 0
-26 -71 116 -32 -77 122 0
26 71 -116 32 77 -122 0
26 71 116 31 76 121 0
-26 71 116 -31 76 121 0
26 -71 116 31 -76 121 0
-26 -71 116 -31 -76 121 0
26 71 -116 31 76 -121 0
27 72 117 28 73 118 0
-27 72 117 -28 73 118 0
27 -72 117 28 -73 118 0
-27 -72 117 -28 -73 118 0
27 72 -117 28 73 -118 0
27 72 117 28 73 118 0
-27 72 117 -28 73 118 0
27 -72 117 28 -73 118 0
-27 -72 117 -28 -73 118 0
27 72 -117 28 73 -118 0
27 72 117 43 88 133 0
-27 72 117 -43 88 133 0
27 -72 117 43 -88 133 0
-27 -72 117 -43 -88 133 0
27 72 -117 43 88 -133 0
27 72 117 41 86 131 0
-27 72 117 -41 86 131 0
27 -72 117 41 -86 131 0
-27 -72 117 -41 -86 131 0
27 72 -117 41 86 -131 0
28 73 118 38 83 128 0
-28 73 118 -38 83 128 0
28 -73 118 38 -83 128 0
-28 -73 118 -38 -83 128 0
28 73 -118 38 83 -128 0
28 73 118 36 81 126 0
-28 73 118 -36 81 126 0
28 -73 118 36 -81 126 0
-28 -73 118 -36 -81 126 0
28 73 -118 36 81 -126 0
28 73 118 34 79 124 0
-28 73 118 -34 79 124 0
28 -73 118 34 -79 124 0
-28 -73 118 -34 -79 124 0
28 73 -118 34 79 -124 0
28 73 118 45 90 135 0
-28 73 118 -45 90 135 0
28 -73 118 45 -90 135 0
-28 -73 118 -45 -90 135 0
28 73 -118 45 90 -135 0
29 74 119 30 75 120 0
-29 74 119 -30 75 120 0
29 -74 119 30 -75 120 0
-29 -74 119 -30 -75 120 0
29 74 -119 30 75 -120 0
29 74 119 34 79 124 0
-29 74 119 -34 79 124 0
29 -74 119 34 -79 124 0
-29 -74 119 -34 -79 124 0
29 74 -119 34 79 -124 0
29 74 119 39 84 129 0
-29 74 119 -39 84 129 0
29 -74 119 39 -84 129 0
-29 -74 119 -39 -84 129 0
29 74 -119 39 84 -129 0
29 74 119 33 78 123 0
-29 74 119 -33 78 123 0
29 -74 119 33 -78 123 0
-29 -74 119 -33 -78 123 0
29 74 -119 33 78 -123 0
30 75 120 35 80 125 0
-30 75 120 -35 80 125 0
30 -75 120 35 -80 125 0
-30 -75 120 -35 -80 125 0
30 75 -120 35 80 -125 0
30 75 120 36 81 126 0
-30 75 120 -36 81 126 0
30 -75 120 36 -81 126 0
-30 -75 120 -36 -81 126 0
30 75 -120 36 81 -126 0
30 75 120 40 85 130 0
-30 75 120 -40 85 130 0
30 -75 120 40 -85 130 0
-30 -75 120 -40 -85 130 0
30 75 -120 40 85 -130 0
30 75 120 38 83 128 0
-30 75 120 -38 83 128 0
30 -75 120 38 -83 128 0
-30 -75 120 -38 -83 128 0
30 75 -120 38 83 -128 0
31 76 121 40 85 130 0
-31 76 121 -40 85 130 0
31 -76 121 40 -85 130 0
-31 -76 121 -40 -85 130 0
31 76 -121 40 85 -130 0
31 76 121 38 83 128 0
-31 76 121 -38 83 128 0
31 -76 121 38 -83 128 0
-31 -76 121 -38 -83 128 0
31 76 -121 38 83 -128 0
32 77 122 42 87 132 0
-32 77 122 -42 87 132 0
32 -77 122 42 -87 132 0
-32 -77 122 -42 -87 132 0
32 77 -122 42 87 -132 0
32 77 122 45 90 135 0
-32 77 122 -45 90 135 0
32 -77 122 45 -90 135 0
-32 -77 122 -45 -90 135 0
32 77 -122 45 90 -135 0
32 77 122 44 89 134 0
-32 77 122 -44 89 134 0
32 -77 122 44 -89 134 0
-32 -77 122 -44 -89 134 0
32 77 -122 44 89 -134 0
32 77 122 35 80 125 0
-32 77 122 -35 80 125 0
32 -77 122 35 -80 125 0
-32 -77 122 -35 -80 125 0
32 77 -122 35 80 -125 0
33 78 123 38 83 128 0
-33 78 123 -38 83 128 0
33 -78 123 38 -83 128 0
-33 -78 123 -38 -83 128 0
33 78 -123 38 83 -128 0
33 78 123 42 87 132 0
-33 78 123 -42 87 132 0
33 -78 123 42 -87 132 0
-33 -78 123 -42 -87 132 0
33 78 -123 42 87 -132 0
34 79 124 36 81 126 0
-34 79 124 -36 81 126 0
34 -79 124 36 -81 126 0
-34 -79 124 -36 -81 126 0
34 79 -124 36 81 -126 0
34 79 124 37 82 127 0
-34 79 124 -37 82 127 0
34 -79 124 37 -82 127 0
-34 -79 124 -37 -82 127 0
34 79 -124 37 82 -127 0
34 79 124 37 82 127 0
-34 79 124 -37 82 127 0
34 -79 124 37 -82 127 0
-34 -79 124 -37 -82 127 0
34 79 -124 37 82 -127 0
35 80 125 39 84 129 0
-35 80 125 -39 84 129 0
35 -80 125 39 -84 129 0
-35 -80 125 -39 -84 129 0
35 80 -125 39 84 -129 0
35 80 125 39 84 129 0
-35 80 125 -39 84 129 0
35 -80 125 39 -84 129 0
-35 -80 125 -39 -84 129 0
35 80 -125 39 84 -129 0
36 81 126 37 82 127 0
-36 81 126 -37 82 127 0
36 -81 126 37 -82 127 0
-36 -81 126 -37 -82 127 0
36 81 -126 37 82 -127 0
36 81 126 42 87 132 0
-36 81 126 -42 87 132 0
36 -81 126 42 -87 132 0
-36 -81 126 -42 -87 132 0
36 81 -126 42 87 -132 0
37 82 127 42 87 132 0
-37 82 127 -42 87 132 0
37 -82 127 42 -87 132 0
-37 -82 127 -42 -87 132 0
37 82 -127 42 87 -132 0
37 82 127 42 87 132 0
-37 82 127 -42 87 132 0
37 -82 127 42 -87 132 0
-37 -82 127 -42 -87 132 0
37 82 -127 42 87 -132 0
38 83 128 45 90 135 0
-38 83 128 -45 90 135 0
38 -83 128 45 -90 135 0
-38 -83 128 -45 -90 135 0
38 83 -128 45 90 -135 0
39 84 129 42 87 132 0
-39 84 129 -42 87 132 0
39 -84 129 42 -87 132 0
-39 -84 129 -42 -87 132 0
39 84 -129 42 87 -132 0
39 84 129 40 85 130 0
-39 84 129 -40 85 130 0
39 -84 129 40 -85 130 0
-39 -84 129 -40 -85 130 0
39 84 -129 40 85 -130 0
39 84 129 45 90 135 0
-39 84 129 -45 90 135 0
39 -84 129 45 -90 135 0
-39 -84 129 -45 -90 135 0
39 84 -129 45 90 -135 0
41 86 131 43 88 133 0
-41 86 131 -43 88 133 0
41 -86 131 43 -88 133 0
-41 -86 131 -43 -88 133 0
41 86 -131 43 88 -133 0
43 88 133 44 89 134 0
-43 88 133 -44 89 134 0
43 -88 133 44 -89 134 0
-43 -88 133 -44 -89 134 0
43 88 -133 44 89 -134 0
44 89 134 45 90 135 0
-44 89 134 -45 90 135 0
44 -89 134 45 -90 135 0
-44 -89 134 -45 -90 135 0
44 89 -134 45 90 -135 0
c p weight 45 0.50000000 0
c p weight -45 0.50000000 0
c p weight 11 0.50000000 0
c p weight -11 0.50000000 0
c p weight 28 0.50000000 0
c p weight -28 0.50000000 0
c p weight 14 0.50000000 0
c p weight -14 0.50000000 0
c p weight 127 0.50000000 0
c p weight -127 0.50000000 0
c p weight 112 0.50000000 0
c p weight -112 0.50000000 0
c p weight 34 0.50000000 0
c p weight -34 0.50000000 0
c p weight 40 0.50000000 0
c p weight -40 0.50000000 0
c p weight 100 0.50000000 0
c p weight -100 0.50000000 0
c p weight 16 0.50000000 0
c p weight -16 0.50000000 0
c p weight 95 0.50000000 0
c p weight -95 0.50000000 0
c p weight 85 0.50000000 0
c p weight -85 0.50000000 0
c p weight 114 0.50000000 0
c p weight -114 0.50000000 0
c p weight 12 0.50000000 0
c p weight -12 0.50000000 0
c p weight 30 0.50000000 0
c p weight -30 0.50000000 0
c p weight 52 0.50000000 0
c p weight -52 0.50000000 0
c p weight 93 0.50000000 0
c p weight -93 0.50000000 0
c p weight 88 0.50000000 0
c p weight -88 0.50000000 0
c p weight 68 0.50000000 0
c p weight -68 0.50000000 0
c p weight 123 0.50000000 0
c p weight -123 0.50000000 0
c p weight 83 0.50000000 0
c p weight -83 0.50000000 0
c p weight 62 0.50000000 0
c p weight -62 0.50000000 0
c p weight 32 0.50000000 0
c p weight -32 0.50000000 0
c p weight 1 0.50000000 0
c p weight -1 0.50000000 0
c p weight 110 0.50000000 0
c p weight -110 0.50000000 0
c p weight 53 0.50000000 0
c p weight -53 0.50000000 0
c p weight 94 0.50000000 0
c p weight -94 0.50000000 0
c p weight 54 0.50000000 0
c p weight -54 0.50000000 0
c p weight 41 0.50000000 0
c p weight -41 0.50000000 0
c p weight 47 0.50000000 0
c p weight -47 0.50000000 0
c p weight 20 0.50000000 0
c p weight -20 0.50000000 0
c p weight 126 0.50000000 0
c p weight -126 0.50000000 0
c p weight 64 0.50000000 0
c p weight -64 0.50000000 0
c p weight 66 0.50000000 0
c p weight -66 0.50000000 0
c p weight 31 0.50000000 0
c p weight -31 0.50000000 0
c p weight 130 0.50000000 0
c p weight -130 0.50000000 0
c p weight 9 0.50000000 0
c p weight -9 0.50000000 0
c p weight 55 0.50000000 0
c p weight -55 0.50000000 0
c p weight 120 0.50000000 0
c p weight -120 0.50000000 0
c p weight 106 0.50000000 0
c p weight -106 0.50000000 0
c p weight 135 0.50000000 0
c p weight -135 0.50000000 0
c p weight 122 0.50000000 0
c p weight -122 0.50000000 0
c p weight 89 0.50000000 0
c p weight -89 0.50000000 0
c p weight 37 0.50000000 0
c p weight -37 0.50000000 0
c p weight 57 0.50000000 0
c p weight -57 0.50000000 0
c p weight 2 1 0
c p weight -2 1 0
c p weight 3 1 0
c p weight -3 1 0
c p weight 4 1 0
c p weight -4 1 0
c p weight 5 1 0
c p weight -5 1 0
c p weight 6 1 0
c p weight -6 1 0
c p weight 7 1 0
c p weight -7 1 0
c p weight 8 1 0
c p weight -8 1 0
c p weight 10 1 0
c p weight -10 1 0
c p weight 13 1 0
c p weight -13 1 0
c p weight 15 1 0
c p weight -15 1 0
c p weight 17 1 0
c p weight -17 1 0
c p weight 18 1 0
c p weight -18 1 0
c p weight 19 1 0
c p weight -19 1 0
c p weight 21 1 0
c p weight -21 1 0
c p weight 22 1 0
c p weight -22 1 0
c p weight 23 1 0
c p weight -23 1 0
c p weight 24 1 0
c p weight -24 1 0
c p weight 25 1 0
c p weight -25 1 0
c p weight 26 1 0
c p weight -26 1 0
c p weight 27 1 0
c p weight -27 1 0
c p weight 29 1 0
c p weight -29 1 0
c p weight 33 1 0
c p weight -33 1 0
c p weight 35 1 0
c p weight -35 1 0
c p weight 36 1 0
c p weight -36 1 0
c p weight 38 1 0
c p weight -38 1 0
c p weight 39 1 0
c p weight -39 1 0
c p weight 42 1 0
c p weight -42 1 0
c p weight 43 1 0
c p weight -43 1 0
c p weight 44 1 0
c p weight -44 1 0
c p weight 46 1 0
c p weight -46 1 0
c p weight 48 1 0
c p weight -48 1 0
c p weight 49 1 0
c p weight -49 1 0
c p weight 50 1 0
c p weight -50 1 0
c p weight 51 1 0
c p weight -51 1 0
c p weight 56 1 0
c p weight -56 1 0
c p weight 58 1 0
c p weight -58 1 0
c p weight 59 1 0
c p weight -59 1 0
c p weight 60 1 0
c p weight -60 1 0
c p weight 61 1 0
c p weight -61 1 0
c p weight 63 1 0
c p weight -63 1 0
c p weight 65 1 0
c p weight -65 1 0
c p weight 67 1 0
c p weight -67 1 0
c p weight 69 1 0
c p weight -69 1 0
c p weight 70 1 0
c p weight -70 1 0
c p weight 71 1 0
c p weight -71 1 0
c p weight 72 1 0
c p weight -72 1 0
c p weight 73 1 0
c p weight -73 1 0
c p weight 74 1 0
c p weight -74 1 0
c p weight 75 1 0
c p weight -75 1 0
c p weight 76 1 0
c p weight -76 1 0
c p weight 77 1 0
c p weight -77 1 0
c p weight 78 1 0
c p weight -78 1 0
c p weight 79 1 0
c p weight -79 1 0
c p weight 80 1 0
c p weight -80 1 0
c p weight 81 1 0
c p weight -81 1 0
c p weight 82 1 0
c p weight -82 1 0
c p weight 84 1 0
c p weight -84 1 0
c p weight 86 1 0
c p weight -86 1 0
c p weight 87 1 0
c p weight -87 1 0
c p weight 90 1 0
c p weight -90 1 0
c p weight 91 1 0
c p weight -91 1 0
c p weight 92 1 0
c p weight -92 1 0
c p weight 96 1 0
c p weight -96 1 0
c p weight 97 1 0
c p weight -97 1 0
c p weight 98 1 0
c p weight -98 1 0
c p weight 99 1 0
c p weight -99 1 0
c p weight 101 1 0
c p weight -101 1 0
c p weight 102 1 0
c p weight -102 1 0
c p weight 103 1 0
c p weight -103 1 0
c p weight 104 1 0
c p weight -104 1 0
c p weight 105 1 0
c p weight -105 1 0
c p weight 107 1 0
c p weight -107 1 0
c p weight 108 1 0
c p weight -108 1 0
c p weight 109 1 0
c p weight -109 1 0
c p weight 111 1 0
c p weight -111 1 0
c p weight 113 1 0
c p weight -113 1 0
c p weight 115 1 0
c p weight -115 1 0
c p weight 116 1 0
c p weight -116 1 0
c p weight 117 1 0
c p weight -117 1 0
c p weight 118 1 0
c p weight -118 1 0
c p weight 119 1 0
c p weight -119 1 0
c p weight 121 1 0
c p weight -121 1 0
c p weight 124 1 0
c p weight -124 1 0
c p weight 125 1 0
c p weight -125 1 0
c p weight 128 1 0
c p weight -128 1 0
c p weight 129 1 0
c p weight -129 1 0
c p weight 131 1 0
c p weight -131 1 0
c p weight 132 1 0
c p weight -132 1 0
c p weight 133 1 0
c p weight -133 1 0
c p weight 134 1 0
c p weight -134 1 0
